c CNF file corresponding to a (partial) station packing problem.
p cnf 896 229
1 2 3 4 5 6 7 8 9 10 11 12 13 14 0
-1 -2 0
-1 -3 0
-1 -4 0
-1 -5 0
-1 -6 0
-1 -7 0
-1 -8 0
-1 -9 0
-1 -10 0
-1 -11 0
-1 -12 0
-1 -13 0
-1 -14 0
-2 -3 0
-2 -4 0
-2 -5 0
-2 -6 0
-2 -7 0
-2 -8 0
-2 -9 0
-2 -10 0
-2 -11 0
-2 -12 0
-2 -13 0
-2 -14 0
-3 -4 0
-3 -5 0
-3 -6 0
-3 -7 0
-3 -8 0
-3 -9 0
-3 -10 0
-3 -11 0
-3 -12 0
-3 -13 0
-3 -14 0
-4 -5 0
-4 -6 0
-4 -7 0
-4 -8 0
-4 -9 0
-4 -10 0
-4 -11 0
-4 -12 0
-4 -13 0
-4 -14 0
-5 -6 0
-5 -7 0
-5 -8 0
-5 -9 0
-5 -10 0
-5 -11 0
-5 -12 0
-5 -13 0
-5 -14 0
-6 -7 0
-6 -8 0
-6 -9 0
-6 -10 0
-6 -11 0
-6 -12 0
-6 -13 0
-6 -14 0
-7 -8 0
-7 -9 0
-7 -10 0
-7 -11 0
-7 -12 0
-7 -13 0
-7 -14 0
-8 -9 0
-8 -10 0
-8 -11 0
-8 -12 0
-8 -13 0
-8 -14 0
-9 -10 0
-9 -11 0
-9 -12 0
-9 -13 0
-9 -14 0
-10 -11 0
-10 -12 0
-10 -13 0
-10 -14 0
-11 -12 0
-11 -13 0
-11 -14 0
-12 -13 0
-12 -14 0
-13 -14 0
880 881 882 883 884 885 886 887 888 889 890 891 892 893 894 895 896 0
-880 -881 0
-880 -882 0
-880 -883 0
-880 -884 0
-880 -885 0
-880 -886 0
-880 -887 0
-880 -888 0
-880 -889 0
-880 -890 0
-880 -891 0
-880 -892 0
-880 -893 0
-880 -894 0
-880 -895 0
-880 -896 0
-881 -882 0
-881 -883 0
-881 -884 0
-881 -885 0
-881 -886 0
-881 -887 0
-881 -888 0
-881 -889 0
-881 -890 0
-881 -891 0
-881 -892 0
-881 -893 0
-881 -894 0
-881 -895 0
-881 -896 0
-882 -883 0
-882 -884 0
-882 -885 0
-882 -886 0
-882 -887 0
-882 -888 0
-882 -889 0
-882 -890 0
-882 -891 0
-882 -892 0
-882 -893 0
-882 -894 0
-882 -895 0
-882 -896 0
-883 -884 0
-883 -885 0
-883 -886 0
-883 -887 0
-883 -888 0
-883 -889 0
-883 -890 0
-883 -891 0
-883 -892 0
-883 -893 0
-883 -894 0
-883 -895 0
-883 -896 0
-884 -885 0
-884 -886 0
-884 -887 0
-884 -888 0
-884 -889 0
-884 -890 0
-884 -891 0
-884 -892 0
-884 -893 0
-884 -894 0
-884 -895 0
-884 -896 0
-885 -886 0
-885 -887 0
-885 -888 0
-885 -889 0
-885 -890 0
-885 -891 0
-885 -892 0
-885 -893 0
-885 -894 0
-885 -895 0
-885 -896 0
-886 -887 0
-886 -888 0
-886 -889 0
-886 -890 0
-886 -891 0
-886 -892 0
-886 -893 0
-886 -894 0
-886 -895 0
-886 -896 0
-887 -888 0
-887 -889 0
-887 -890 0
-887 -891 0
-887 -892 0
-887 -893 0
-887 -894 0
-887 -895 0
-887 -896 0
-888 -889 0
-888 -890 0
-888 -891 0
-888 -892 0
-888 -893 0
-888 -894 0
-888 -895 0
-888 -896 0
-889 -890 0
-889 -891 0
-889 -892 0
-889 -893 0
-889 -894 0
-889 -895 0
-889 -896 0
-890 -891 0
-890 -892 0
-890 -893 0
-890 -894 0
-890 -895 0
-890 -896 0
-891 -892 0
-891 -893 0
-891 -894 0
-891 -895 0
-891 -896 0
-892 -893 0
-892 -894 0
-892 -895 0
-892 -896 0
-893 -894 0
-893 -895 0
-893 -896 0
-894 -895 0
-894 -896 0
-895 -896 0
